86409.7
26 27 28 1 3 150 137 132 113 112 133 134 135 136 149 5 4 23 24 30 6 7 22 31 148 139 128 115 114 129 130 131 138 147 9 8 20 21 32 10 11 19 33 146 141 124 117 116 125 127 126 140 145 13 12 17 18 34 14 15 16 35 144 143 120 119 118 122 123 142 121 111 88 89 87 86 85 90 91 110 109 92 94 95 108 84 93 83 82 97 107 96 81 80 79 98 99 106 105 100 101 77 78 76 102 103 104 151 2 0 43 39 42 40 41 75 60 74 44 61 73 45 47 46 62 72 38 48 49 63 71 50 51 52 64 70 54 56 55 66 68 67 59 58 36 57 69 65 53 37 29 25 
